INCAR created by Atomic Simulation Environment
 ENCUT = 350.000000
 ISIF = 3
 IBRION = 1
 NSW = 100
 LVTOT = .TRUE.
 LVHAR = .TRUE.
