Ag
1.0
        4.0854997635         0.0000000000         0.0000000000
        0.0000000000         4.0854997635         0.0000000000
        0.0000000000         0.0000000000         4.0854997635
   Ag
    4
Cartesian
     0.000000000         0.000000000         0.000000000
     0.000000000         2.042749882         2.042749882
     2.042749882         0.000000000         2.042749882
     2.042749882         2.042749882         0.000000000
